50, 952
32, 32
36, 35
48, 50
43, 42
35, 35
35, 36
33, 33
47, 43
27, 24
29, 25
49, 52
37, 33
36, 35
46, 43
32, 33
45, 43
34, 31
28, 23
45, 50
44, 49
27, 25
35, 39
30, 30
46, 46
42, 44
42, 37
29, 29
32, 27
34, 34
40, 45
48, 47
29, 30
43, 40
48, 50
41, 40
31, 27
48, 45
35, 39
46, 48
26, 29
26, 23
46, 41
49, 44
49, 50
44, 49
28, 32
31, 27
36, 35
40, 37
43, 48
